38
75
52	17
51	22
50	27
49	23
48	27
47	26
46	21
45	30
44	26
43	35
42	24
41	32
40	23
39	23
38	23
37	29
36	32
35	28
34	14
33	27
32	21
31	26
30	41
29	28
28	28
27	16
26	29
25	37
24	19
23	22
22	19
21	34
20	23
19	27
18	33
17	37
16	24
15	27
